
;this file is automatically generated: Mon Feb 10 17:01:40 CST 2020

;declarations generated

(declare-fun oclExcludes ( Int Int) Bool)
(declare-fun Cardinality ( Int) Int)
(declare-fun type_e8e2c3bc_c1df_43c3_bf4b_f76fee90c050_Class39 ( Int) Bool)
(declare-fun oclSelect ( Int Bool) Int)
(declare-fun class39_Class39IntAttr2 ( Int) Int)
(declare-fun Enum0 ( Int) Int)
(declare-fun Enum1 ( Int) Int)
(declare-fun Enum2 ( Int) Int)
(declare-fun container_ ( Int) Int)
(declare-fun oclIncludes ( Int Int) Bool)
(declare-fun ObjAt ( Int Int) Int)
(declare-fun obj_ac6b2046_17d6_47eb_9f9a_8b4717888fc6 ( Int) Int)

;formula(s) generated
(assert (! (forall ((v Int)) (=> ( type_e8e2c3bc_c1df_43c3_bf4b_f76fee90c050_Class39 v )  (not (= ( class39_Class39IntAttr2 ( obj_ac6b2046_17d6_47eb_9f9a_8b4717888fc6 v )  )  10) ))):named l0))
(assert (! (forall ((c1 Int)) (=> ( type_e8e2c3bc_c1df_43c3_bf4b_f76fee90c050_Class39 c1 )  (not (= ( class39_Class39IntAttr2 ( obj_ac6b2046_17d6_47eb_9f9a_8b4717888fc6 c1 )  )  16) ))):named l1))
(assert (exists ((o Int)) ( type_e8e2c3bc_c1df_43c3_bf4b_f76fee90c050_Class39 ( obj_ac6b2046_17d6_47eb_9f9a_8b4717888fc6 o )  ) ))

 ;end of formula 